205 5
10 10 10 10 10 

0 0 0 0 0 0 3 2 14 26 
0 0 0 0 0 0 2 3 6 
10 1 0 0 0 0 3 11 8 4 
1 6 0 0 0 0 1 5 
1 10 0 0 0 0 1 7 
3 10 0 0 0 0 1 7 
4 10 0 0 0 0 1 9 
10 7 0 0 0 0 1 9 
1 8 0 0 0 0 1 10 
9 7 0 0 0 0 1 12 
10 6 0 0 0 0 1 12 
5 10 0 0 0 0 1 13 
0 0 0 0 0 0 1 38 
0 0 0 0 0 0 1 15 
10 0 0 0 2 0 2 18 16 
3 0 0 0 10 0 1 17 
8 0 0 0 10 0 2 20 19 
9 0 0 0 6 0 2 20 19 
9 0 0 0 8 0 1 21 
9 0 0 0 10 0 1 21 
7 0 0 0 9 0 2 24 22 
1 0 0 0 6 0 1 23 
8 0 0 0 8 0 1 25 
1 0 0 0 6 0 1 25 
0 0 0 0 0 0 1 38 
0 0 0 0 0 0 2 27 29 
6 0 0 7 0 0 1 28 
10 0 0 3 0 0 2 34 30 
6 0 0 9 0 0 2 34 31 
5 0 0 8 0 0 1 31 
7 0 0 8 0 0 1 32 
6 0 0 9 0 0 2 35 33 
4 0 0 8 0 0 1 36 
8 0 0 10 0 0 1 35 
2 0 0 8 0 0 1 37 
9 0 0 5 0 0 1 37 
0 0 0 0 0 0 1 38 
0 0 0 0 0 0 3 39 51 63 
0 0 0 0 0 0 1 40 
9 1 0 0 0 0 1 41 
2 10 0 0 0 0 3 49 46 42 
3 10 0 0 0 0 1 43 
4 6 0 0 0 0 2 48 44 
2 8 0 0 0 0 1 45 
3 7 0 0 0 0 1 47 
4 6 0 0 0 0 1 47 
2 8 0 0 0 0 1 50 
2 9 0 0 0 0 1 50 
6 10 0 0 0 0 1 50 
0 0 0 0 0 0 1 75 
0 0 0 0 0 0 2 52 54 
3 0 0 0 0 4 3 59 56 53 
2 0 0 0 0 5 1 55 
5 0 0 0 0 9 2 59 58 
3 0 0 0 0 10 1 57 
10 0 0 0 0 10 1 57 
2 0 0 0 0 5 1 58 
10 0 0 0 0 10 1 60 
1 0 0 0 0 6 1 60 
8 0 0 0 0 9 1 61 
3 0 0 0 0 7 1 62 
0 0 0 0 0 0 1 75 
0 0 0 0 0 0 2 64 68 
3 0 0 4 0 0 1 65 
8 0 0 7 0 0 2 73 66 
6 0 0 10 0 0 1 67 
7 0 0 10 0 0 2 72 69 
7 0 0 5 0 0 2 73 72 
5 0 0 10 0 0 1 70 
8 0 0 10 0 0 1 71 
7 0 0 6 0 0 1 74 
2 0 0 8 0 0 1 74 
6 0 0 5 0 0 1 74 
0 0 0 0 0 0 1 75 
0 0 0 0 0 0 3 76 88 100 
0 0 0 0 0 0 2 77 86 
3 0 3 0 0 0 1 78 
3 0 6 0 0 0 1 79 
9 0 10 0 0 0 3 85 84 80 
10 0 10 0 0 0 1 81 
8 0 9 0 0 0 1 82 
5 0 8 0 0 0 1 83 
7 0 6 0 0 0 1 87 
7 0 8 0 0 0 1 87 
7 0 10 0 0 0 1 87 
1 0 5 0 0 0 1 87 
0 0 0 0 0 0 1 112 
0 0 0 0 0 0 2 89 90 
8 0 2 0 0 0 1 91 
5 0 3 0 0 0 1 91 
1 0 10 0 0 0 2 94 92 
5 0 8 0 0 0 1 93 
7 0 10 0 0 0 1 95 
8 0 6 0 0 0 1 95 
2 0 8 0 0 0 2 97 96 
4 0 9 0 0 0 1 98 
9 0 10 0 0 0 1 98 
10 0 9 0 0 0 1 99 
0 0 0 0 0 0 1 112 
0 0 0 0 0 0 3 101 104 106 
2 0 0 0 2 0 1 102 
10 0 0 0 8 0 1 103 
7 0 0 0 10 0 2 110 105 
2 0 0 0 9 0 2 110 107 
10 0 0 0 5 0 1 107 
9 0 0 0 9 0 1 107 
1 0 0 0 5 0 1 108 
10 0 0 0 7 0 1 109 
7 0 0 0 10 0 1 111 
10 0 0 0 10 0 1 111 
0 0 0 0 0 0 1 112 
0 0 0 0 0 0 3 113 125 147 
0 0 0 0 0 0 2 114 117 
4 0 0 0 4 0 1 115 
6 0 0 0 4 0 1 116 
3 0 0 0 8 0 2 119 118 
10 0 0 0 10 0 2 119 118 
3 0 0 0 8 0 2 123 120 
9 0 0 0 10 0 2 123 121 
2 0 0 0 6 0 1 121 
2 0 0 0 8 0 1 122 
9 0 0 0 9 0 1 124 
8 0 0 0 8 0 1 124 
0 0 0 0 0 0 3 169 181 193 
0 0 0 0 0 0 2 126 129 
10 5 5 0 0 0 1 127 
5 7 10 0 0 0 2 135 128 
7 8 8 0 0 0 3 142 133 130 
5 2 9 0 0 0 3 142 133 130 
10 10 10 0 0 0 1 131 
8 5 2 0 0 0 1 132 
10 10 8 0 0 0 1 134 
4 10 6 0 0 0 1 134 
7 7 5 0 0 0 1 136 
4 9 10 0 0 0 1 136 
2 10 8 0 0 0 1 137 
3 10 7 0 0 0 1 138 
6 6 10 0 0 0 1 139 
4 4 6 0 0 0 2 145 140 
6 7 9 0 0 0 1 141 
9 5 6 0 0 0 1 143 
3 10 7 0 0 0 1 143 
4 7 6 0 0 0 1 144 
8 8 8 0 0 0 1 146 
9 10 10 0 0 0 1 146 
0 0 0 0 0 0 1 205 
0 0 0 0 0 0 3 148 160 163 
6 2 0 1 0 0 3 167 166 149 
3 7 0 10 0 0 1 150 
4 8 0 8 0 0 1 151 
2 9 0 4 0 0 1 152 
5 9 0 8 0 0 1 153 
9 10 0 8 0 0 1 154 
10 9 0 10 0 0 2 165 155 
9 4 0 6 0 0 1 156 
4 10 0 7 0 0 1 157 
6 5 0 10 0 0 1 158 
3 10 0 8 0 0 1 159 
10 9 0 5 0 0 1 161 
4 6 0 6 0 0 2 166 164 
5 9 0 8 0 0 1 162 
1 10 0 9 0 0 1 164 
4 3 0 9 0 0 1 164 
5 6 0 10 0 0 1 168 
5 10 0 10 0 0 1 168 
7 7 0 10 0 0 1 168 
8 7 0 3 0 0 1 168 
0 0 0 0 0 0 1 205 
0 0 0 0 0 0 1 170 
7 0 4 0 0 0 2 172 171 
8 0 3 0 0 0 3 176 174 173 
5 0 6 0 0 0 2 176 173 
1 0 10 0 0 0 1 175 
10 0 10 0 0 0 1 175 
8 0 8 0 0 0 1 177 
6 0 8 0 0 0 1 177 
1 0 10 0 0 0 1 178 
10 0 7 0 0 0 1 179 
4 0 9 0 0 0 1 180 
0 0 0 0 0 0 1 205 
0 0 0 0 0 0 2 182 183 
8 0 0 8 0 0 2 187 184 
1 0 0 1 0 0 2 187 186 
5 0 0 9 0 0 1 185 
7 0 0 9 0 0 1 186 
4 0 0 8 0 0 1 188 
9 0 0 10 0 0 1 188 
10 0 0 6 0 0 2 191 189 
6 0 0 9 0 0 1 190 
8 0 0 5 0 0 1 192 
2 0 0 10 0 0 1 192 
0 0 0 0 0 0 1 205 
0 0 0 0 0 0 3 194 197 201 
10 4 0 0 0 0 1 195 
2 10 0 0 0 0 1 196 
2 7 0 0 0 0 2 203 198 
8 8 0 0 0 0 1 198 
5 10 0 0 0 0 1 199 
5 6 0 0 0 0 1 200 
10 10 0 0 0 0 1 202 
8 7 0 0 0 0 1 202 
7 10 0 0 0 0 1 204 
6 3 0 0 0 0 1 204 
0 0 0 0 0 0 1 205 
0 0 0 0 0 0 0 
